Instance name : DPDPTWUR-R_one_clustering_DPDPTW-R_mitrovic-minic_Rnd6_10h_100_000_slice_6
Authors : 
Date : 
Reference 
Solution
Route 1 : 4 71 63 130 2 69 38 45 10 29 96 17 112 105 18 19 54 61 128 85 86 77 59 126 121 7 62 84 129 74 
Route 2 : 65 30 8 75 97 132 6 73 36 103 16 42 3 70 49 44 56 116 83 123 31 111 51 39 98 118 106 109 
Route 3 : 48 115 11 78 
Route 4 : 50 117 
Route 5 : 52 15 119 34 82 101 
Route 6 : 20 87 9 76 27 94 
Route 7 : 46 12 113 79 37 47 55 122 104 114 24 35 91 102 26 43 93 110 13 21 80 60 127 58 88 125 23 57 90 124 
Route 8 : 1 53 68 120 
Route 9 : 40 5 72 64 107 131 
Route 10 : 28 95 22 89 33 41 108 100 
Route 11 : 
Route 12 : 
Route 13 : 
Route 14 : 
Route 15 : 
Route 16 : 
Route 17 : 
Route 18 : 
Route 19 : 
Route 20 : 
Route 21 : 
